; benchmark generated from python API
(set-info :status unknown)
(declare-fun x_month () Int)
(declare-fun x_day () Int)
(declare-fun x_year () Int)
(declare-fun y_month () Int)
(declare-fun y_day () Int)
(declare-fun y_year () Int)
(assert
 (>= x_month 1))
(assert
 (<= x_month 12))
(assert
 (>= x_day 1))
(assert
 (<= x_day 31))
(assert
 (let (($x3122 (<= x_day 28)))
 (let (($x3193 (<= x_day 29)))
 (let (($x2510 (= (mod x_year 400) 0)))
 (let (($x431 (= (mod x_year 4) 0)))
 (let (($x3909 (ite (or (and $x431 (and (distinct (mod x_year 100) 0) true)) $x2510) $x3193 $x3122)))
 (let (($x3693 (= x_month 2)))
 (ite $x3693 $x3909 true))))))))
(assert
 (let (($x1743 (<= x_day 30)))
 (let (($x366 (or (= x_month 4) (= x_month 6) (= x_month 9) (= x_month 11))))
 (ite $x366 $x1743 true))))
(assert
 (>= y_month 1))
(assert
 (<= y_month 12))
(assert
 (>= y_day 1))
(assert
 (<= y_day 31))
(assert
 (let (($x1070 (<= y_day 28)))
 (let (($x2283 (<= y_day 29)))
 (let (($x1383 (= (mod y_year 400) 0)))
 (let (($x3649 (= (mod y_year 4) 0)))
 (let (($x4210 (ite (or (and $x3649 (and (distinct (mod y_year 100) 0) true)) $x1383) $x2283 $x1070)))
 (let (($x3656 (= y_month 2)))
 (ite $x3656 $x4210 true))))))))
(assert
 (let (($x1019 (<= y_day 30)))
 (let (($x4784 (= y_month 4)))
 (let (($x3534 (or $x4784 (= y_month 6) (= y_month 9) (= y_month 11))))
 (ite $x3534 $x1019 true)))))
(assert
 (let (($x267 (= x_day 31)))
 (let (($x1300 (= x_month 1)))
 (let (($x2504 (= x_year 2023)))
 (and $x2504 $x1300 $x267)))))
(assert
 (let ((?x3118 (+ (mod (- (+ x_month (+ (* 0 12) 3)) 1) 12) 1)))
 (let ((?x1785 (ite (or (= ?x3118 4) (= ?x3118 6) (= ?x3118 9) (= ?x3118 11)) 30 31)))
 (let ((?x3290 (+ 0 (div (- (+ x_month (+ (* 0 12) 3)) 1) 12))))
 (let ((?x485 (+ x_year ?x3290)))
 (let (($x2596 (or (and (= (mod ?x485 4) 0) (and (distinct (mod ?x485 100) 0) true)) (= (mod ?x485 400) 0))))
 (let ((?x3559 (ite (= ?x3118 2) (ite $x2596 29 28) ?x1785)))
 (let ((?x281 (ite (< x_day 1) 1 (ite (> x_day ?x3559) ?x3559 x_day))))
 (let ((?x2046 (ite (< ?x281 1) 1 (ite (> ?x281 ?x3559) ?x3559 ?x281))))
 (let ((?x4588 (ite (= 2 ?x3118) (ite $x2596 31 31) (ite (= 1 ?x3118) (ite $x2596 0 0) 0))))
 (let ((?x1399 (ite (= 4 ?x3118) (ite $x2596 91 90) (ite (= 3 ?x3118) (ite $x2596 60 59) ?x4588))))
 (let ((?x2271 (ite (= 6 ?x3118) (ite $x2596 152 151) (ite (= 5 ?x3118) (ite $x2596 121 120) ?x1399))))
 (let ((?x3596 (ite (= 8 ?x3118) (ite $x2596 213 212) (ite (= 7 ?x3118) (ite $x2596 182 181) ?x2271))))
 (let ((?x3124 (ite (= 10 ?x3118) (ite $x2596 274 273) (ite (= 9 ?x3118) (ite $x2596 244 243) ?x3596))))
 (let ((?x4775 (ite (= 12 ?x3118) (ite $x2596 335 334) (ite (= 11 ?x3118) (ite $x2596 305 304) ?x3124))))
 (let ((?x2052 (- (+ (* 365 (- ?x485 1)) (div (- ?x485 1) 4)) (div (- ?x485 1) 100))))
 (let ((?x1285 (- (+ (+ (+ ?x2052 (div (- ?x485 1) 400)) ?x4775) (- ?x2046 1)) 730179)))
 (let ((?x3967 (+ (+ ?x1285 0) 730179)))
 (let ((?x2242 (mod ?x3967 146097)))
 (let ((?x528 (div ?x2242 36524)))
 (let ((?x1566 (ite (<= 4 ?x528) 3 ?x528)))
 (let ((?x4247 (- ?x2242 (* ?x1566 36524))))
 (let ((?x4255 (mod ?x4247 1461)))
 (let ((?x3642 (div ?x4255 365)))
 (let ((?x4252 (ite (<= 4 ?x3642) 3 ?x3642)))
 (let ((?x534 (+ (+ (* (div ?x3967 146097) 400) (* ?x1566 100)) (* (div ?x4247 1461) 4))))
 (let ((?x3382 (+ (+ ?x534 ?x4252) 1)))
 (let (($x1790 (or (and (= (mod ?x3382 4) 0) (and (distinct (mod ?x3382 100) 0) true)) (= (mod ?x3382 400) 0))))
 (let ((?x2798 (- ?x4255 (* ?x4252 365))))
 (let ((?x3140 (ite $x1790 31 31)))
 (let (($x2571 (>= ?x2798 ?x3140)))
 (let ((?x4696 (ite $x2571 (+ (- ?x2798 ?x3140) 1) (+ (- ?x2798 (ite $x1790 0 0)) 1))))
 (let ((?x2057 (ite $x1790 60 59)))
 (let (($x3212 (>= ?x2798 ?x2057)))
 (let ((?x2380 (ite $x1790 91 90)))
 (let (($x3557 (>= ?x2798 ?x2380)))
 (let ((?x4061 (ite $x3557 (+ (- ?x2798 ?x2380) 1) (ite $x3212 (+ (- ?x2798 ?x2057) 1) ?x4696))))
 (let ((?x2904 (ite $x1790 121 120)))
 (let (($x4845 (>= ?x2798 ?x2904)))
 (let ((?x1798 (ite $x1790 152 151)))
 (let (($x3538 (>= ?x2798 ?x1798)))
 (let ((?x3502 (ite $x3538 (+ (- ?x2798 ?x1798) 1) (ite $x4845 (+ (- ?x2798 ?x2904) 1) ?x4061))))
 (let ((?x1799 (ite $x1790 182 181)))
 (let (($x3979 (>= ?x2798 ?x1799)))
 (let ((?x2205 (ite $x1790 213 212)))
 (let (($x3667 (>= ?x2798 ?x2205)))
 (let ((?x4566 (ite $x3667 (+ (- ?x2798 ?x2205) 1) (ite $x3979 (+ (- ?x2798 ?x1799) 1) ?x3502))))
 (let ((?x2207 (ite $x1790 244 243)))
 (let (($x3617 (>= ?x2798 ?x2207)))
 (let ((?x2579 (ite $x1790 274 273)))
 (let (($x3287 (>= ?x2798 ?x2579)))
 (let ((?x3044 (ite $x3287 (+ (- ?x2798 ?x2579) 1) (ite $x3617 (+ (- ?x2798 ?x2207) 1) ?x4566))))
 (let ((?x4402 (ite $x1790 305 304)))
 (let (($x3587 (>= ?x2798 ?x4402)))
 (let ((?x2796 (ite $x1790 335 334)))
 (let (($x3598 (>= ?x2798 ?x2796)))
 (let ((?x4826 (ite $x3598 (+ (- ?x2798 ?x2796) 1) (ite $x3587 (+ (- ?x2798 ?x4402) 1) ?x3044))))
 (let (($x1367 (= 0 0)))
 (let ((?x3871 (ite $x4845 5 (ite $x3557 4 (ite $x3212 3 (ite $x2571 2 1))))))
 (let ((?x1779 (ite $x3617 9 (ite $x3667 8 (ite $x3979 7 (ite $x3538 6 ?x3871))))))
 (let (($x3436 (= y_month (ite $x1367 ?x3118 (ite $x3598 12 (ite $x3587 11 (ite $x3287 10 ?x1779)))))))
 (and (= y_year (ite $x1367 ?x485 ?x3382)) $x3436 (= y_day (ite $x1367 ?x2046 ?x4826))))))))))))))))))))))))))))))))))))))))))))))))))))))))))))))))
(assert
 (let (($x3019 (= y_day 30)))
 (let (($x4784 (= y_month 4)))
 (let (($x4430 (= y_year 2023)))
 (and $x4430 $x4784 $x3019)))))
(assert
 (let (($x267 (= x_day 31)))
 (let (($x1300 (= x_month 1)))
 (let (($x2504 (= x_year 2023)))
 (and $x2504 $x1300 $x267)))))
(assert
 (let (($x3019 (= y_day 30)))
(let (($x4784 (= y_month 4)))
(let (($x4430 (= y_year 2023)))
(and $x4430 $x4784 $x3019)))))
(check-sat)
